Test: fpga10_12_uns_rcr.cnf
Options: -no-inverting-opt -sym-usage-var-bump
WARNING: for repeatability, setting FPU to use double precision
============================[ Problem Statistics ]=============================
|                                                                             |
|  Number of symmetries:           41                                         |
|  Number of invertingSyms:         0                                         |
|  Number of variables:           240                                         |
|  Number of clauses:            1344                                         |
|  Parse time:                   0.00 s                                       |
|                                                                             |
============================[ Search Statistics ]==============================
| Conflicts |          ORIGINAL         |          LEARNT          | Progress |
|           |    Vars  Clauses Literals |    Limit  Clauses Lit/Cl |          |
===============================================================================
|       100 |     240     1344     2880 |      492      122     47 |  0.002 % |
|       250 |     240     1344     2880 |      542      302     45 |  0.002 % |
|       475 |     240     1344     2880 |      596      615     42 |  0.002 % |
|       812 |     240     1344     2880 |      655      356     31 |  0.002 % |
|      1318 |     240     1344     2880 |      721      494     31 |  0.002 % |
|      2077 |     240     1344     2880 |      793      718     32 |  0.002 % |
|      3216 |     240     1344     2880 |      873      752     31 |  0.002 % |
|      4924 |     240     1344     2880 |      960      509     29 |  0.002 % |
|      7486 |     240     1344     2880 |     1056      785     36 |  0.002 % |
|     11330 |     240     1344     2880 |     1161      950     35 |  0.002 % |
===============================================================================
restarts              : 62
conflicts             : 14846          (46391 /sec)
symconflicts          : 1773           (5540 /sec)
decisions             : 23579          (0.00 % random) (73680 /sec)
propagations          : 320379         (1001122 /sec)
sympropagations       : 11412          (35660 /sec)
conflict literals     : 576966         (7.23 % deleted)
literals     : 576966         (7.23 % deleted)

HEURISTIC USAGES
random                : 0           
activity w/ lookahead : 0           
activity no lookahead : 0           
original sp           : 23579       
sym count             : 0           

Memory used           : 6.00 MB
CPU time              : 0.32002 s

UNSATISFIABLE
